&control
   calculation = 'vc-relax' ,
   prefix = 'pwscf' ,
   outdir = './temp/' ,
   pseudo_dir = './' ,
   disk_io = 'none' ,
   etot_conv_thr = 1.0d-10 ,
   forc_conv_thr = 1.0d-5 ,
/
&system
   ibrav = 0 ,
   celldm(1) = 1.889725989 ,
   ecutwfc = 40 ,
   ecutrho = 400 ,
   occupations = 'smearing' ,
   smearing = 'mv' ,
   degauss = 0.02 ,
   nat = 6 , 
   ntyp = 2 , 
/
&electrons
   conv_thr = 1.0d-10 ,
   diagonalization = 'david' ,
   mixing_mode = 'plain' ,
   startingpot = 'atomic' ,
   startingwfc = 'atomic+random' ,
   mixing_beta = 0.6 ,
/
&ions
   ion_dynamics = 'bfgs' ,
/
&cell
   cell_dynamics = 'bfgs' ,
   cell_factor = 2.0 ,
   press = 0.0 ,
   press_conv_thr = 1.0d-3 ,
/
CELL_PARAMETERS alat
4.567506000 -2.637051000 0.000000000
-4.567506000 -2.637051000 0.000000000
0.000000000 0.000000000 -4.972461000
ATOMIC_SPECIES
  Nb 92.90638 Nb.pbe-nsp-van.UPF
  Ti 47.86700 Ti.pbe-sp-van_ak.UPF
ATOMIC_POSITIONS angstrom
  Ti 0.000000000 -5.274102000 -4.972461000
  Nb 0.000001523 -1.758034879 -2.486230500
  Nb -1.522502000 -2.637051000 -4.972461000
  Nb -1.522500477 -4.395085879 -2.486230500
  Nb 1.522502000 -2.637051000 -4.972461000
  Nb 1.522503523 -4.395085879 -2.486230500
K_POINTS automatic
   11 11 12 0 0 0
