 &control
    calculation = 'scf'
    prefix='silicon',
    pseudo_dir = './handson_pwscf/pseudo',
    outdir='./output'
 /
 &system
    ibrav=  2,
    celldm(1) =10.26,
    nat=  2,
    ntyp= 1,
    ecutwfc = 25.0,
    ecutrho = 200.0,
    nbnd = 8,
    !occupations = 'smearing',
    !smearing = 'gaussian',
    !degauss = 0.005
 /
 &electrons
    conv_thr = 1e-8
 /
ATOMIC_SPECIES
 Si  28.086  Si.pz-vbc.UPF
ATOMIC_POSITIONS alat
 Si 0.00 0.00 0.00
 Si 0.25 0.25 0.25
K_POINTS automatic
  4 4 4 1 1 1
