&control
    calculation='scf',
    prefix='Graphene_1x1_PBE',
    pseudo_dir = '../pseudo/',        
    outdir='../tmp',
/
 &system
    ibrav= 4, a=2.463, c=7.389, celldm(3)=3.0, nat= 2, ntyp= 1,
    ecutwfc =20, ecutrho =200, 
    occupations='smearing', smearing='gaussian', degauss=0.01,
 /
 &electrons
    conv_thr = 1.0d-8
 /
ATOMIC_SPECIES
C  12.0107 C.pbe-rrkjus.UPF
ATOMIC_POSITIONS {crystal}
C    0.0000000    0.0000000    0.000000
C    0.3333333    0.6666666    0.000000
K_POINTS {automatic}
9 9 1 0 0 0
