 &control
    !outdir='temporary directory for large files'
    !pseudo_dir = 'directory where pp-files are kept',
    !verbosity = 'high',
    prefix='fe',
 /
 &system
    ibrav=  1, celldm(1)=5.42, nat=  2, ntyp= 2,
    ecutwfc = 25.0, ecutrho = 200.0,
    occupations='smearing', smearing='mv', degauss=0.01,
    nbnd = 8,
    nspin=2, 
    starting_magnetization(1)= 0.6
 /
 &electrons
 /
ATOMIC_SPECIES
# the second field, atomic mass, is not actually used 
# except for MD calculations
 Fe1  1.  Fe.pbe-nd-rrkjus.UPF
 Fe2  1.  Fe.pbe-nd-rrkjus.UPF
ATOMIC_POSITIONS crystal
 Fe1 0.0  0.0  0.0 
 Fe2 0.5  0.5  0.5 
! this is a comment that the code will ignore
! grid below same as 8 8 8 0 0 0
K_POINTS tpiba
 29
   0.0000000   0.0000000   0.0000000   1.
   0.0000000  -0.1250000   0.1250000  12.
   0.0000000  -0.2500000   0.2500000  12.
   0.0000000  -0.3750000   0.3750000  12.
   0.0000000   0.5000000  -0.5000000   6.
  -0.1250000  -0.1250000   0.2500000  24.
  -0.1250000  -0.2500000   0.3750000  48.
  -0.1250000   0.6250000  -0.5000000  48.
  -0.2500000   0.7500000  -0.5000000  24.
  -0.2500000   0.6250000  -0.3750000  24.
   0.0000000   0.0000000   0.2500000   6.
   0.0000000  -0.1250000   0.3750000  24.
   0.0000000  -0.2500000   0.5000000  24.
   0.0000000   0.6250000  -0.3750000  12.
  -0.1250000  -0.1250000   0.5000000  24.
  -0.1250000   0.7500000  -0.3750000  48.
  -0.2500000   0.2500000   0.2500000   8.
  -0.2500000   0.7500000  -0.2500000   8.
   0.6250000  -0.6250000   0.2500000  24.
   0.5000000  -0.5000000   0.2500000  12.
   0.5000000  -0.6250000   0.3750000  24.
   0.0000000   0.0000000   0.5000000   6.
   0.0000000  -0.1250000   0.6250000  24.
   0.0000000   0.7500000  -0.2500000  12.
  -0.1250000   0.8750000  -0.2500000  24.
   0.5000000  -0.5000000   0.5000000   2.
   0.0000000   0.0000000   0.7500000   6.
   0.0000000   0.8750000  -0.1250000  12.
   0.0000000   0.0000000  -1.0000000   1.
