 &control
    calculation='bands'
    prefix='silicon',
    pseudo_dir = '../pseudo',
    outdir='./output'
 /
 &system
    ibrav=  2,
    celldm(1) =10.26,
    nat=  2,
    ntyp= 1,
    ecutwfc = 25.0,
    ecutrho = 200.0,
    nbnd = 8
 /
 &electrons
 /
ATOMIC_SPECIES
 Si  28.086  Si.pz-vbc.UPF
ATOMIC_POSITIONS alat
 Si 0.00 0.00 0.00
 Si 0.25 0.25 0.25
K_POINTS (crystal_b)
 5
   0.0000 0.5000 0.0000 20
   0.0000 0.0000 0.0000 30
   -0.500 0.0000 -0.500 10
   -0.375 0.2500 -0.375 30
   0.0000 0.0000 0.0000 20
