 &bands
    prefix  = 'silicon'
    outdir='./output'
    filband = 'sibands.dat'
    lsym=.true.
 /
