&control
   calculation = 'vc-relax' ,
   prefix = 'pwscf' ,
   outdir = './temp/' ,
   pseudo_dir = './' ,
   disk_io = 'none' ,
   etot_conv_thr = 1.0d-10 ,
   forc_conv_thr = 1.0d-5 ,
/
&system
   ibrav = 0 ,
   celldm(1) = 1.889725989 ,
   ecutwfc = 50 ,
   ecutrho = 500 ,
   occupations = 'smearing' ,
   smearing = 'mv' ,
   degauss = 0.02 ,
   nat = 4 , 
   ntyp = 2 , 
/
&electrons
   conv_thr = 1.0d-10 ,
   diagonalization = 'david' ,
   mixing_mode = 'plain' ,
   startingpot = 'atomic' ,
   startingwfc = 'atomic+random' ,
   mixing_beta = 0.6 ,
/
&ions
   ion_dynamics = 'bfgs' ,
/
&cell
   cell_dynamics = 'bfgs' ,
   cell_factor = 2.0 ,
   press = 0.0 ,
   press_conv_thr = 1.0d-3 ,
/
CELL_PARAMETERS alat
-5.274094500 1.758031500 1.758031500
1.758031500 1.758031500 -5.274094500
1.758031500 -5.274094500 1.758031500
ATOMIC_SPECIES
  Nb 92.90638 Nb.pbe-nsp-van.UPF
  Ti 47.86700 Ti.pbe-sp-van_ak.UPF
ATOMIC_POSITIONS angstrom
  Ti 0.000000000 0.000000000 -3.516063000
  Nb 0.000000000 -3.516063000 0.000000000
  Nb -3.516063000 0.000000000 0.000000000
  Nb -1.758031500 -1.758031500 -1.758031500
K_POINTS automatic
   13 13 13 0 0 0
